(set-logic QF_S)
(declare-fun var0 () String)
(declare-fun var1 () Int)
(declare-fun var2 () Bool)
(declare-fun var3 () String)
(declare-fun var4 () Int)
(declare-fun var5 () Bool)
(declare-fun var6 () String)
(declare-fun var7 () Int)
(declare-fun var8 () Bool)
(assert (> var7 var4))
(assert (str.contains (str.replace var0 "G9W=5_Z=wt" var0) (str.replace var0 var3 var0)))
(assert (not (not (str.contains var0 var0))))
(assert (not var8))
(check-sat)